peakDumbCharging = 11100; 
Machine = anon_enum(16); 
machineSpeed = [3700,3700,3700,3700,3700,3700,3700,3700,3700,3700,3700,3700,3700,3700,3700,3700]; 
machineLoad = [3700,3700,3700,3700,3700,3700,3700,3700,3700,3700,3700,3700,3700,3700,3700,3700]; 
Car = anon_enum(18); 
demandCar = [920,10920,9080,14920,30680,5040,6400,5960,5840,9200,16400,13160,6000,9240,8600,4040,4640,10520]; 
arrivalCar = [77,74,66,64,61,60,59,56,56,50,47,45,45,43,39,39,33,23]; 
departureCar = [79,78,69,69,72,62,64,62,60,54,52,51,48,53,43,42,39,60]; 
